Route #1: 35 14 19 11 18 36
Route #2: 33 1 15 2 13 17 16 12 71 6 10 8 7 9 4 3 5
Route #3: 20 29 30 21 22 28 27 42 43 44 46 53 45 52 48 47 50 70 51 49 25 24 26 23
Route #4: 32 31 34 60 61 58 59 63 62 64 65 66 67 69 37 38 40 68 39 57 56 41 55 54
Cost 237
Time 0.277503
Tempo = 0.28833989999839105